words_hard_train/5668.qaiger
aag 24 9 0 1 15
2
4
8
12
14
20
24
26
32
49
6 2 4
10 6 8
16 13 15
18 11 16
22 19 20
28 25 27
30 23 28
34 30 32
36 5 9
38 36 15
40 39 20
42 40 17
44 43 28
46 45 33
48 35 47
i0 2 y1[0]
i1 1 x2[7]
i2 1 x2[6]
i3 1 x2[5]
i4 1 x2[4]
i5 1 x2[3]
i6 1 x2[2]
i7 1 x2[1]
i8 1 x2[0]
o0 bv[0]
c
simplified
  >
    subtract
      148
      reverse
        1 x2
    and
      1
      2 y1
