words_hard_train/5668.qaiger.qdimacs
p cnf 24 46
a 2 4 6 7 10 12 13 16 0
e 1 3 5 8 9 11 14 15 17 18 19 20 21 22 23 24 0
-1 -2 3 0
1 -3 0
2 -3 0
-3 -4 5 0
3 -5 0
4 -5 0
6 7 8 0
-6 -8 0
-7 -8 0
5 -8 9 0
-5 -9 0
8 -9 0
9 -10 11 0
-9 -11 0
10 -11 0
12 13 14 0
-12 -14 0
-13 -14 0
11 -14 15 0
-11 -15 0
14 -15 0
-15 -16 17 0
15 -17 0
16 -17 0
2 4 18 0
-2 -18 0
-4 -18 0
-18 7 19 0
18 -19 0
-7 -19 0
19 -10 20 0
-19 -20 0
10 -20 0
-20 8 21 0
20 -21 0
-8 -21 0
21 -14 22 0
-21 -22 0
14 -22 0
22 16 23 0
-22 -23 0
-16 -23 0
17 23 24 0
-17 -24 0
-23 -24 0
-24 0
